p cnf 54 187
15 16 17 18 19 0
32 33 34 35 36 0
-1 -20 0
-1 -25 0
-1 -32 0
-1 -37 0
-1 -44 0
-1 -48 0
-20 -25 0
-20 -32 0
-20 -37 0
-20 -44 0
-20 -48 0
-25 -32 0
-25 -37 0
-25 -44 0
-25 -48 0
-32 -37 0
-32 -44 0
-32 -48 0
-37 -44 0
-37 -48 0
-44 -48 0
-2 -7 0
-2 -12 0
-2 -15 0
-2 -21 0
-2 -26 0
-2 -38 0
-2 -45 0
-2 -49 0
-7 -12 0
-7 -15 0
-7 -21 0
-7 -26 0
-7 -38 0
-7 -45 0
-7 -49 0
-12 -15 0
-12 -21 0
-12 -26 0
-12 -38 0
-12 -45 0
-12 -49 0
-15 -21 0
-15 -26 0
-15 -38 0
-15 -45 0
-15 -49 0
-21 -26 0
-21 -38 0
-21 -45 0
-21 -49 0
-26 -38 0
-26 -45 0
-26 -49 0
-38 -45 0
-38 -49 0
-45 -49 0
-3 -8 0
-3 -16 0
-3 -27 0
-3 -39 0
-3 -50 0
-8 -16 0
-8 -27 0
-8 -39 0
-8 -50 0
-16 -27 0
-16 -39 0
-16 -50 0
-27 -39 0
-27 -50 0
-39 -50 0
-9 -17 0
-9 -22 0
-9 -28 0
-9 -33 0
-9 -40 0
-9 -51 0
-17 -22 0
-17 -28 0
-17 -33 0
-17 -40 0
-17 -51 0
-22 -28 0
-22 -33 0
-22 -40 0
-22 -51 0
-28 -33 0
-28 -40 0
-28 -51 0
-33 -40 0
-33 -51 0
-40 -51 0
-4 -10 0
-4 -13 0
-4 -29 0
-4 -34 0
-4 -41 0
-4 -46 0
-4 -52 0
-10 -13 0
-10 -29 0
-10 -34 0
-10 -41 0
-10 -46 0
-10 -52 0
-13 -29 0
-13 -34 0
-13 -41 0
-13 -46 0
-13 -52 0
-29 -34 0
-29 -41 0
-29 -46 0
-29 -52 0
-34 -41 0
-34 -46 0
-34 -52 0
-41 -46 0
-41 -52 0
-46 -52 0
-5 -11 0
-5 -18 0
-5 -23 0
-5 -30 0
-5 -35 0
-5 -42 0
-5 -53 0
-11 -18 0
-11 -23 0
-11 -30 0
-11 -35 0
-11 -42 0
-11 -53 0
-18 -23 0
-18 -30 0
-18 -35 0
-18 -42 0
-18 -53 0
-23 -30 0
-23 -35 0
-23 -42 0
-23 -53 0
-30 -35 0
-30 -42 0
-30 -53 0
-35 -42 0
-35 -53 0
-42 -53 0
-6 -14 0
-6 -19 0
-6 -24 0
-6 -31 0
-6 -36 0
-6 -43 0
-6 -47 0
-6 -54 0
-14 -19 0
-14 -24 0
-14 -31 0
-14 -36 0
-14 -43 0
-14 -47 0
-14 -54 0
-19 -24 0
-19 -31 0
-19 -36 0
-19 -43 0
-19 -47 0
-19 -54 0
-24 -31 0
-24 -36 0
-24 -43 0
-24 -47 0
-24 -54 0
-31 -36 0
-31 -43 0
-31 -47 0
-31 -54 0
-36 -43 0
-36 -47 0
-36 -54 0
-43 -47 0
-43 -54 0
-47 -54 0
